NAME : instances/20-120-tsp/instance-35.tsp
COMMENT : No Comment
TYPE : TSP
DIMENSION: 35
EDGE_WEIGHT_TYPE : EUC_2D
NODE_COORD_SECTION
1 3219 4627 
2 5027 9184 
3 2686 5916 
4 7536 662 
5 6073 6523 
6 1638 1015 
7 6987 1638 
8 8705 8415 
9 7932 5157 
10 1395 4210 
11 7127 4912 
12 150 9841 
13 5375 4941 
14 9594 644 
15 686 4334 
16 471 9964 
17 3264 803 
18 4677 3291 
19 9641 2841 
20 9409 6911 
21 8576 2861 
22 414 7723 
23 4162 4663 
24 4220 5940 
25 6290 5448 
26 347 8159 
27 7453 3225 
28 223 4309 
29 8482 5756 
30 8873 4853 
31 4396 7826 
32 6643 4429 
33 9896 2586 
34 8819 1278 
35 8316 9944 
EOF
